c SAT Generator for power-law distributed variable frequencies
c -g u -v 20 -c 91 -k 3 -p 2.750000 -b 3.200000 -f /home/schmidt/Devel/ni-kop-sat/data/ensemble/ruf20-91/ruf20-91-662 -u 1 -U 1 -s 1641563139
p cnf 20 91
3 -9 15 0
-4 -5 14 0
-12 -17 20 0
-9 -11 -18 0
-5 12 -19 0
-12 -18 -20 0
-1 -16 18 0
-2 -9 15 0
1 2 12 0
5 19 20 0
-1 4 -6 0
-5 -12 -14 0
-6 15 17 0
3 9 18 0
-3 13 -20 0
3 5 -14 0
-4 9 -16 0
3 5 15 0
3 -10 -18 0
-4 -5 -9 0
6 10 -18 0
4 -6 15 0
-4 7 20 0
4 11 -18 0
9 -14 -15 0
-2 -5 -11 0
-6 12 -16 0
-1 -2 9 0
-2 -14 -17 0
-1 7 20 0
-2 -4 -9 0
5 12 -13 0
-1 3 5 0
6 7 -11 0
-6 8 -19 0
-8 -14 -16 0
1 9 20 0
5 -17 18 0
7 12 18 0
-11 -13 -15 0
-6 -10 -11 0
1 -6 -17 0
6 -9 -14 0
-2 -5 -20 0
6 10 18 0
7 -18 19 0
-1 7 9 0
6 -8 10 0
1 -10 -13 0
1 11 18 0
4 14 15 0
-15 19 -20 0
6 15 19 0
-12 -13 19 0
-2 5 19 0
1 8 10 0
2 -10 -19 0
-16 -19 -20 0
-8 13 19 0
2 -17 -19 0
2 15 -17 0
11 15 -20 0
-14 19 20 0
10 -12 19 0
3 8 -10 0
11 16 -20 0
2 -3 -16 0
2 7 20 0
-2 -8 -14 0
4 -7 17 0
5 -8 -13 0
8 -11 -12 0
2 -4 11 0
-6 -12 19 0
1 7 16 0
2 -15 17 0
-2 -3 18 0
-6 -15 20 0
5 11 -13 0
8 -13 -14 0
3 -7 19 0
7 -11 16 0
7 -9 -13 0
-1 13 -15 0
-13 14 20 0
3 -5 17 0
-3 -7 -11 0
-1 17 20 0
-3 -12 -19 0
-6 7 -18 0
-17 -19 -20 0
